32
100
80	1
78	1
77	4
75	1
74	3
71	2
67	1
66	4
63	1
62	1
61	2
60	2
59	1
58	1
57	2
56	1
50	2
48	1
47	1
46	1
45	1
42	1
37	1
34	1
32	4
31	2
27	2
26	1
24	1
23	1
22	1
21	1
